c nIsolatedPIs 32
c maxPI 96
p cnf 325 688
c gate 97 37 85 0
37 -97 0
85 -97 0
-37 -85 97 0
c gate 98 38 86 0
38 -98 0
86 -98 0
-38 -86 98 0
c gate 99 -97 -98 0
-97 -99 0
-98 -99 0
97 98 99 0
c gate 100 -39 -87 0
-39 -100 0
-87 -100 0
39 87 100 0
c gate 101 -38 -86 0
-38 -101 0
-86 -101 0
38 86 101 0
c gate 102 -40 -88 0
-40 -102 0
-88 -102 0
40 88 102 0
c gate 103 -101 -102 0
-101 -103 0
-102 -103 0
101 102 103 0
c gate 104 -100 103 0
-100 -104 0
103 -104 0
100 -103 104 0
c gate 105 -99 104 0
-99 -105 0
104 -105 0
99 -104 105 0
c gate 106 40 88 0
40 -106 0
88 -106 0
-40 -88 106 0
c gate 107 39 87 0
39 -107 0
87 -107 0
-39 -87 107 0
c gate 108 -102 107 0
-102 -108 0
107 -108 0
102 -107 108 0
c gate 109 -106 -108 0
-106 -109 0
-108 -109 0
106 108 109 0
c gate 110 -105 109 0
-105 -110 0
109 -110 0
105 -109 110 0
c gate 111 -34 -82 0
-34 -111 0
-82 -111 0
34 82 111 0
c gate 112 33 81 0
33 -112 0
81 -112 0
-33 -81 112 0
c gate 113 34 82 0
34 -113 0
82 -113 0
-34 -82 113 0
c gate 114 -112 -113 0
-112 -114 0
-113 -114 0
112 113 114 0
c gate 115 -111 -114 0
-111 -115 0
-114 -115 0
111 114 115 0
c gate 116 -36 -84 0
-36 -116 0
-84 -116 0
36 84 116 0
c gate 117 35 83 0
35 -117 0
83 -117 0
-35 -83 117 0
c gate 118 -116 117 0
-116 -118 0
117 -118 0
116 -117 118 0
c gate 119 36 84 0
36 -119 0
84 -119 0
-36 -84 119 0
c gate 120 -118 -119 0
-118 -120 0
-119 -120 0
118 119 120 0
c gate 121 -115 120 0
-115 -121 0
120 -121 0
115 -120 121 0
c gate 122 110 121 0
110 -122 0
121 -122 0
-110 -121 122 0
c gate 123 -45 -93 0
-45 -123 0
-93 -123 0
45 93 123 0
c gate 124 -41 -89 0
-41 -124 0
-89 -124 0
41 89 124 0
c gate 125 -123 -124 0
-123 -125 0
-124 -125 0
123 124 125 0
c gate 126 44 92 0
44 -126 0
92 -126 0
-44 -92 126 0
c gate 127 -47 -95 0
-47 -127 0
-95 -127 0
47 95 127 0
c gate 128 -126 -127 0
-126 -128 0
-127 -128 0
126 127 128 0
c gate 129 125 128 0
125 -129 0
128 -129 0
-125 -128 129 0
c gate 130 48 96 0
48 -130 0
96 -130 0
-48 -96 130 0
c gate 131 -43 -91 0
-43 -131 0
-91 -131 0
43 91 131 0
c gate 132 -130 -131 0
-130 -132 0
-131 -132 0
130 131 132 0
c gate 133 46 94 0
46 -133 0
94 -133 0
-46 -94 133 0
c gate 134 43 91 0
43 -134 0
91 -134 0
-43 -91 134 0
c gate 135 -133 -134 0
-133 -135 0
-134 -135 0
133 134 135 0
c gate 136 132 135 0
132 -136 0
135 -136 0
-132 -135 136 0
c gate 137 129 136 0
129 -137 0
136 -137 0
-129 -136 137 0
c gate 138 47 95 0
47 -138 0
95 -138 0
-47 -95 138 0
c gate 139 -42 -90 0
-42 -139 0
-90 -139 0
42 90 139 0
c gate 140 -138 -139 0
-138 -140 0
-139 -140 0
138 139 140 0
c gate 141 42 90 0
42 -141 0
90 -141 0
-42 -90 141 0
c gate 142 -46 -94 0
-46 -142 0
-94 -142 0
46 94 142 0
c gate 143 -141 -142 0
-141 -143 0
-142 -143 0
141 142 143 0
c gate 144 140 143 0
140 -144 0
143 -144 0
-140 -143 144 0
c gate 145 45 93 0
45 -145 0
93 -145 0
-45 -93 145 0
c gate 146 -48 -96 0
-48 -146 0
-96 -146 0
48 96 146 0
c gate 147 -145 -146 0
-145 -147 0
-146 -147 0
145 146 147 0
c gate 148 41 89 0
41 -148 0
89 -148 0
-41 -89 148 0
c gate 149 -44 -92 0
-44 -149 0
-92 -149 0
44 92 149 0
c gate 150 -148 -149 0
-148 -150 0
-149 -150 0
148 149 150 0
c gate 151 147 150 0
147 -151 0
150 -151 0
-147 -150 151 0
c gate 152 144 151 0
144 -152 0
151 -152 0
-144 -151 152 0
c gate 153 137 152 0
137 -153 0
152 -153 0
-137 -152 153 0
c gate 154 -122 -153 0
-122 -154 0
-153 -154 0
122 153 154 0
c gate 155 -24 -72 0
-24 -155 0
-72 -155 0
24 72 155 0
c gate 156 23 71 0
23 -156 0
71 -156 0
-23 -71 156 0
c gate 157 24 72 0
24 -157 0
72 -157 0
-24 -72 157 0
c gate 158 -156 -157 0
-156 -158 0
-157 -158 0
156 157 158 0
c gate 159 -23 -71 0
-23 -159 0
-71 -159 0
23 71 159 0
c gate 160 -22 -70 0
-22 -160 0
-70 -160 0
22 70 160 0
c gate 161 -159 -160 0
-159 -161 0
-160 -161 0
159 160 161 0
c gate 162 -20 -68 0
-20 -162 0
-68 -162 0
20 68 162 0
c gate 163 -21 -69 0
-21 -163 0
-69 -163 0
21 69 163 0
c gate 164 -162 -163 0
-162 -164 0
-163 -164 0
162 163 164 0
c gate 165 -19 -67 0
-19 -165 0
-67 -165 0
19 67 165 0
c gate 166 -18 -66 0
-18 -166 0
-66 -166 0
18 66 166 0
c gate 167 -165 -166 0
-165 -167 0
-166 -167 0
165 166 167 0
c gate 168 17 65 0
17 -168 0
65 -168 0
-17 -65 168 0
c gate 169 18 66 0
18 -169 0
66 -169 0
-18 -66 169 0
c gate 170 -168 -169 0
-168 -170 0
-169 -170 0
168 169 170 0
c gate 171 167 -170 0
167 -171 0
-170 -171 0
-167 170 171 0
c gate 172 19 67 0
19 -172 0
67 -172 0
-19 -67 172 0
c gate 173 20 68 0
20 -173 0
68 -173 0
-20 -68 173 0
c gate 174 -172 -173 0
-172 -174 0
-173 -174 0
172 173 174 0
c gate 175 -171 174 0
-171 -175 0
174 -175 0
171 -174 175 0
c gate 176 164 -175 0
164 -176 0
-175 -176 0
-164 175 176 0
c gate 177 21 69 0
21 -177 0
69 -177 0
-21 -69 177 0
c gate 178 22 70 0
22 -178 0
70 -178 0
-22 -70 178 0
c gate 179 -177 -178 0
-177 -179 0
-178 -179 0
177 178 179 0
c gate 180 -176 179 0
-176 -180 0
179 -180 0
176 -179 180 0
c gate 181 15 63 0
15 -181 0
63 -181 0
-15 -63 181 0
c gate 182 16 64 0
16 -182 0
64 -182 0
-16 -64 182 0
c gate 183 -181 -182 0
-181 -183 0
-182 -183 0
181 182 183 0
c gate 184 -16 -64 0
-16 -184 0
-64 -184 0
16 64 184 0
c gate 185 -183 -184 0
-183 -185 0
-184 -185 0
183 184 185 0
c gate 186 13 61 0
13 -186 0
61 -186 0
-13 -61 186 0
c gate 187 14 62 0
14 -187 0
62 -187 0
-14 -62 187 0
c gate 188 -186 -187 0
-186 -188 0
-187 -188 0
186 187 188 0
c gate 189 -13 -61 0
-13 -189 0
-61 -189 0
13 61 189 0
c gate 190 11 59 0
11 -190 0
59 -190 0
-11 -59 190 0
c gate 191 12 60 0
12 -191 0
60 -191 0
-12 -60 191 0
c gate 192 -190 -191 0
-190 -192 0
-191 -192 0
190 191 192 0
c gate 193 -12 -60 0
-12 -193 0
-60 -193 0
12 60 193 0
c gate 194 -192 -193 0
-192 -194 0
-193 -194 0
192 193 194 0
c gate 195 -11 -59 0
-11 -195 0
-59 -195 0
11 59 195 0
c gate 196 -193 -195 0
-193 -196 0
-195 -196 0
193 195 196 0
c gate 197 192 196 0
192 -197 0
196 -197 0
-192 -196 197 0
c gate 198 9 57 0
9 -198 0
57 -198 0
-9 -57 198 0
c gate 199 10 58 0
10 -199 0
58 -199 0
-10 -58 199 0
c gate 200 -198 -199 0
-198 -200 0
-199 -200 0
198 199 200 0
c gate 201 -10 -58 0
-10 -201 0
-58 -201 0
10 58 201 0
c gate 202 -200 -201 0
-200 -202 0
-201 -202 0
200 201 202 0
c gate 203 197 202 0
197 -203 0
202 -203 0
-197 -202 203 0
c gate 204 -194 -203 0
-194 -204 0
-203 -204 0
194 203 204 0
c gate 205 2 50 0
2 -205 0
50 -205 0
-2 -50 205 0
c gate 206 1 49 0
1 -206 0
49 -206 0
-1 -49 206 0
c gate 207 -205 -206 0
-205 -207 0
-206 -207 0
205 206 207 0
c gate 208 -3 -51 0
-3 -208 0
-51 -208 0
3 51 208 0
c gate 209 -2 -50 0
-2 -209 0
-50 -209 0
2 50 209 0
c gate 210 -208 -209 0
-208 -210 0
-209 -210 0
208 209 210 0
c gate 211 -207 210 0
-207 -211 0
210 -211 0
207 -210 211 0
c gate 212 4 52 0
4 -212 0
52 -212 0
-4 -52 212 0
c gate 213 3 51 0
3 -213 0
51 -213 0
-3 -51 213 0
c gate 214 -212 -213 0
-212 -214 0
-213 -214 0
212 213 214 0
c gate 215 -211 214 0
-211 -215 0
214 -215 0
211 -214 215 0
c gate 216 -5 -53 0
-5 -216 0
-53 -216 0
5 53 216 0
c gate 217 -4 -52 0
-4 -217 0
-52 -217 0
4 52 217 0
c gate 218 -216 -217 0
-216 -218 0
-217 -218 0
216 217 218 0
c gate 219 -215 218 0
-215 -219 0
218 -219 0
215 -218 219 0
c gate 220 6 54 0
6 -220 0
54 -220 0
-6 -54 220 0
c gate 221 5 53 0
5 -221 0
53 -221 0
-5 -53 221 0
c gate 222 -220 -221 0
-220 -222 0
-221 -222 0
220 221 222 0
c gate 223 -219 222 0
-219 -223 0
222 -223 0
219 -222 223 0
c gate 224 -7 -55 0
-7 -224 0
-55 -224 0
7 55 224 0
c gate 225 -6 -54 0
-6 -225 0
-54 -225 0
6 54 225 0
c gate 226 -224 -225 0
-224 -226 0
-225 -226 0
224 225 226 0
c gate 227 -223 226 0
-223 -227 0
226 -227 0
223 -226 227 0
c gate 228 8 56 0
8 -228 0
56 -228 0
-8 -56 228 0
c gate 229 7 55 0
7 -229 0
55 -229 0
-7 -55 229 0
c gate 230 -228 -229 0
-228 -230 0
-229 -230 0
228 229 230 0
c gate 231 -227 230 0
-227 -231 0
230 -231 0
227 -230 231 0
c gate 232 -9 -57 0
-9 -232 0
-57 -232 0
9 57 232 0
c gate 233 -8 -56 0
-8 -233 0
-56 -233 0
8 56 233 0
c gate 234 -201 -233 0
-201 -234 0
-233 -234 0
201 233 234 0
c gate 235 -232 234 0
-232 -235 0
234 -235 0
232 -234 235 0
c gate 236 200 235 0
200 -236 0
235 -236 0
-200 -235 236 0
c gate 237 197 236 0
197 -237 0
236 -237 0
-197 -236 237 0
c gate 238 -231 237 0
-231 -238 0
237 -238 0
231 -237 238 0
c gate 239 204 -238 0
204 -239 0
-238 -239 0
-204 238 239 0
c gate 240 -189 -239 0
-189 -240 0
-239 -240 0
189 239 240 0
c gate 241 188 -240 0
188 -241 0
-240 -241 0
-188 240 241 0
c gate 242 -15 -63 0
-15 -242 0
-63 -242 0
15 63 242 0
c gate 243 -14 -62 0
-14 -243 0
-62 -243 0
14 62 243 0
c gate 244 -184 -243 0
-184 -244 0
-243 -244 0
184 243 244 0
c gate 245 -242 244 0
-242 -245 0
244 -245 0
242 -244 245 0
c gate 246 183 245 0
183 -246 0
245 -246 0
-183 -245 246 0
c gate 247 -241 246 0
-241 -247 0
246 -247 0
241 -246 247 0
c gate 248 -185 -247 0
-185 -248 0
-247 -248 0
185 247 248 0
c gate 249 -17 -65 0
-17 -249 0
-65 -249 0
17 65 249 0
c gate 250 164 -249 0
164 -250 0
-249 -250 0
-164 249 250 0
c gate 251 167 250 0
167 -251 0
250 -251 0
-167 -250 251 0
c gate 252 175 251 0
175 -252 0
251 -252 0
-175 -251 252 0
c gate 253 -248 252 0
-248 -253 0
252 -253 0
248 -252 253 0
c gate 254 180 -253 0
180 -254 0
-253 -254 0
-180 253 254 0
c gate 255 161 -254 0
161 -255 0
-254 -255 0
-161 254 255 0
c gate 256 158 -255 0
158 -256 0
-255 -256 0
-158 255 256 0
c gate 257 -155 -256 0
-155 -257 0
-256 -257 0
155 256 257 0
c gate 258 -27 -75 0
-27 -258 0
-75 -258 0
27 75 258 0
c gate 259 -26 -74 0
-26 -259 0
-74 -259 0
26 74 259 0
c gate 260 -258 -259 0
-258 -260 0
-259 -260 0
258 259 260 0
c gate 261 26 74 0
26 -261 0
74 -261 0
-26 -74 261 0
c gate 262 25 73 0
25 -262 0
73 -262 0
-25 -73 262 0
c gate 263 -261 -262 0
-261 -263 0
-262 -263 0
261 262 263 0
c gate 264 260 -263 0
260 -264 0
-263 -264 0
-260 263 264 0
c gate 265 27 75 0
27 -265 0
75 -265 0
-27 -75 265 0
c gate 266 28 76 0
28 -266 0
76 -266 0
-28 -76 266 0
c gate 267 -265 -266 0
-265 -267 0
-266 -267 0
265 266 267 0
c gate 268 -264 267 0
-264 -268 0
267 -268 0
264 -267 268 0
c gate 269 -28 -76 0
-28 -269 0
-76 -269 0
28 76 269 0
c gate 270 -25 -73 0
-25 -270 0
-73 -270 0
25 73 270 0
c gate 271 -269 -270 0
-269 -271 0
-270 -271 0
269 270 271 0
c gate 272 260 271 0
260 -272 0
271 -272 0
-260 -271 272 0
c gate 273 268 272 0
268 -273 0
272 -273 0
-268 -272 273 0
c gate 274 -30 -78 0
-30 -274 0
-78 -274 0
30 78 274 0
c gate 275 -31 -79 0
-31 -275 0
-79 -275 0
31 79 275 0
c gate 276 -274 -275 0
-274 -276 0
-275 -276 0
274 275 276 0
c gate 277 -32 -80 0
-32 -277 0
-80 -277 0
32 80 277 0
c gate 278 -29 -77 0
-29 -278 0
-77 -278 0
29 77 278 0
c gate 279 -277 -278 0
-277 -279 0
-278 -279 0
277 278 279 0
c gate 280 276 279 0
276 -280 0
279 -280 0
-276 -279 280 0
c gate 281 31 79 0
31 -281 0
79 -281 0
-31 -79 281 0
c gate 282 32 80 0
32 -282 0
80 -282 0
-32 -80 282 0
c gate 283 -281 -282 0
-281 -283 0
-282 -283 0
281 282 283 0
c gate 284 29 77 0
29 -284 0
77 -284 0
-29 -77 284 0
c gate 285 30 78 0
30 -285 0
78 -285 0
-30 -78 285 0
c gate 286 -284 -285 0
-284 -286 0
-285 -286 0
284 285 286 0
c gate 287 283 286 0
283 -287 0
286 -287 0
-283 -286 287 0
c gate 288 280 287 0
280 -288 0
287 -288 0
-280 -287 288 0
c gate 289 273 288 0
273 -289 0
288 -289 0
-273 -288 289 0
c gate 290 257 289 0
257 -290 0
289 -290 0
-257 -289 290 0
c gate 291 -269 -278 0
-269 -291 0
-278 -291 0
269 278 291 0
c gate 292 -268 291 0
-268 -292 0
291 -292 0
268 -291 292 0
c gate 293 286 -292 0
286 -293 0
-292 -293 0
-286 292 293 0
c gate 294 276 -293 0
276 -294 0
-293 -294 0
-276 293 294 0
c gate 295 283 -294 0
283 -295 0
-294 -295 0
-283 294 295 0
c gate 296 -277 -295 0
-277 -296 0
-295 -296 0
277 295 296 0
c gate 297 -290 -296 0
-290 -297 0
-296 -297 0
290 296 297 0
c gate 298 -33 -81 0
-33 -298 0
-81 -298 0
33 81 298 0
c gate 299 -111 -298 0
-111 -299 0
-298 -299 0
111 298 299 0
c gate 300 -297 299 0
-297 -300 0
299 -300 0
297 -299 300 0
c gate 301 121 -300 0
121 -301 0
-300 -301 0
-121 300 301 0
c gate 302 -35 -83 0
-35 -302 0
-83 -302 0
35 83 302 0
c gate 303 -119 302 0
-119 -303 0
302 -303 0
119 -302 303 0
c gate 304 -37 -85 0
-37 -304 0
-85 -304 0
37 85 304 0
c gate 305 -116 -304 0
-116 -305 0
-304 -305 0
116 304 305 0
c gate 306 -303 305 0
-303 -306 0
305 -306 0
303 -305 306 0
c gate 307 104 306 0
104 -307 0
306 -307 0
-104 -306 307 0
c gate 308 -301 307 0
-301 -308 0
307 -308 0
301 -307 308 0
c gate 309 110 -308 0
110 -309 0
-308 -309 0
-110 308 309 0
c gate 310 -154 -309 0
-154 -310 0
-309 -310 0
154 309 310 0
c gate 311 -115 -296 0
-115 -311 0
-296 -311 0
115 296 311 0
c gate 312 300 311 0
300 -312 0
311 -312 0
-300 -311 312 0
c gate 313 161 -180 0
161 -313 0
-180 -313 0
-161 180 313 0
c gate 314 158 -313 0
158 -314 0
-313 -314 0
-158 313 314 0
c gate 315 155 -278 0
155 -315 0
-278 -315 0
-155 278 315 0
c gate 316 -284 315 0
-284 -316 0
315 -316 0
284 -315 316 0
c gate 317 273 316 0
273 -317 0
316 -317 0
-273 -316 317 0
c gate 318 -289 -317 0
-289 -318 0
-317 -318 0
289 317 318 0
c gate 319 -314 318 0
-314 -319 0
318 -319 0
314 -318 319 0
c gate 320 257 -319 0
257 -320 0
-319 -320 0
-257 319 320 0
c gate 321 188 204 0
188 -321 0
204 -321 0
-188 -204 321 0
c gate 322 247 321 0
247 -322 0
321 -322 0
-247 -321 322 0
c gate 323 -320 -322 0
-320 -323 0
-322 -323 0
320 322 323 0
c gate 324 -312 323 0
-312 -324 0
323 -324 0
312 -323 324 0
c gate 325 -310 324 0
-310 -325 0
324 -325 0
310 -324 325 0
c PO
-325 0
